scripts/L1data/localhap/group2.lp
\Problem name: 

Minimize
obj: x20 + x22 + x24 + x25 + x26 + x27 + x28 + x29 + x30 + x31
 + x32 + x33 + x34 + x35 + x36 + x37 + x38 + x39 + x40 + x41
 + x42 + x43 + x44 + x45 + x46 + x47 + x48 + x49 + x50 + x51
Subject To
cons0:  30 x0 + x31 >= 30
cons1:  30 x0 - x31 <= 30
cons2:  x0 - x10 - x14 = 0
cons3:  x0 - x12 = 0
cons4:  30 x1 + x32 >= 30
cons5:  30 x1 - x32 <= 30
cons6:  x1 - x7 - x12 = 0
cons7:  x1 - x9 - x13 = 0
cons8:  30 x2 + x33 >= 30
cons9:  30 x2 - x33 <= 30
cons10:  x2 - x13 = 0
cons11:  x2 - x8 - x14 = 0
cons12:  30 x3 + x34 >= 30
cons13:  30 x3 - x34 <= 30
cons14:  x3 - x8 - x18 = 0
cons15:  x3 - x7 - x15 = 0
cons16:  30 x4 + x35 >= 30
cons17:  30 x4 - x35 <= 30
cons18:  x4 - x11 - x15 = 0
cons19:  x4 - x16 = 0
cons20:  30 x5 + x36 >= 30
cons21:  30 x5 - x36 <= 30
cons22:  x5 - x9 - x16 = 0
cons23:  x5 - x11 - x17 = 0
cons24:  30 x6 + x37 >= 30
cons25:  30 x6 - x37 <= 30
cons26:  x6 - x17 = 0
cons27:  x6 - x10 - x18 = 0
cons28:  30 x7 -30.05000 x19 + x38 >= 0
cons29:  30 x7 -30.05000 x19 - x38 <= 0
cons30:  x7 -999999 x19 <= 0
cons31:  x7 - x19 >= 0
cons32:  30 x8 -30.05000 x20 + x39 >= 0
cons33:  30 x8 -30.05000 x20 - x39 <= 0
cons34:  x8 -999999 x20 <= 0
cons35:  x8 - x20 >= 0
cons36:  30 x9 -30.05000 x21 + x40 >= 0
cons37:  30 x9 -30.05000 x21 - x40 <= 0
cons38:  x9 -999999 x21 <= 0
cons39:  x9 - x21 >= 0
cons40:  30 x10 -30.05000 x22 + x41 >= 0
cons41:  30 x10 -30.05000 x22 - x41 <= 0
cons42:  x10 -999999 x22 <= 0
cons43:  x10 - x22 >= 0
cons44:  30 x11 -30.05000 x23 + x42 >= 0
cons45:  30 x11 -30.05000 x23 - x42 <= 0
cons46:  x11 -999999 x23 <= 0
cons47:  x11 - x23 >= 0
cons48:  30 x12 -30.05000 x24 + x43 >= 0
cons49:  30 x12 -30.05000 x24 - x43 <= 0
cons50:  x12 -999999 x24 <= 0
cons51:  x12 - x24 >= 0
cons52:  30 x13 -30.05000 x25 + x44 >= 0
cons53:  30 x13 -30.05000 x25 - x44 <= 0
cons54:  x13 -999999 x25 <= 0
cons55:  x13 - x25 >= 0
cons56:  30 x14 -30.05000 x26 + x45 >= 0
cons57:  30 x14 -30.05000 x26 - x45 <= 0
cons58:  x14 -999999 x26 <= 0
cons59:  x14 - x26 >= 0
cons60:  30 x15 -30.05000 x27 + x46 >= 0
cons61:  30 x15 -30.05000 x27 - x46 <= 0
cons62:  x15 -999999 x27 <= 0
cons63:  x15 - x27 >= 0
cons64:  30 x16 -30.05000 x28 + x47 >= 0
cons65:  30 x16 -30.05000 x28 - x47 <= 0
cons66:  x16 -999999 x28 <= 0
cons67:  x16 - x28 >= 0
cons68:  30 x17 -30.05000 x29 + x48 >= 0
cons69:  30 x17 -30.05000 x29 - x48 <= 0
cons70:  x17 -999999 x29 <= 0
cons71:  x17 - x29 >= 0
cons72:  30 x18 -30.05000 x30 + x49 >= 0
cons73:  30 x18 -30.05000 x30 - x49 <= 0
cons74:  x18 -999999 x30 <= 0
cons75:  x18 - x30 >= 0
cons76:  x0 - x50 = 1
cons77:  x6 - x51 = 1
Bounds
 1 <= x0
 1 <= x1
 1 <= x2
 1 <= x3
 1 <= x4
 1 <= x5
 1 <= x6
 1 <= x19 <= 1
 0 <= x20 <= 1
 1 <= x21 <= 1
 0 <= x22 <= 1
 1 <= x23 <= 1
 0 <= x24 <= 1
 0 <= x25 <= 1
 0 <= x26 <= 1
 0 <= x27 <= 1
 0 <= x28 <= 1
 0 <= x29 <= 1
 0 <= x30 <= 1
Integers
x0 x1 x2 x3 x4 x5 x6 x7 x8 x9 
x10 x11 x12 x13 x14 x15 x16 x17 x18 x19 
x20 x21 x22 x23 x24 x25 x26 x27 x28 x29 
x30 
End
