scripts/L1data/localhap/group2.lp.sol
Optimal - objective value 66.45000000
      2 x24                    1                   31.05
      3 x25                    1                   31.05
      4 x26                    1                   31.05
      6 x28                    1                   31.05
      7 x29                    1                   31.05
      8 x30                    1                   31.05
     10 x32                   30                       0
     14 x36                   30                       0
     16 x38                 0.05                       0
     18 x40                 0.05                       0
     20 x42                 0.05                       0
     21 x43                 0.05                       0
     22 x44                 0.05                       0
     23 x45                 0.05                       0
     25 x47                 0.05                       0
     26 x48                 0.05                       0
     27 x49                 0.05                       0
     30 x0                     1                       0
     32 x14                    1                     -30
     33 x12                    1                     -30
     34 x1                     2                      30
     35 x7                     1                     -30
     36 x9                     1                     -30
     37 x13                    1                     -30
     38 x2                     1                       0
     40 x3                     1                       0
     41 x18                    1                     -30
     43 x4                     1                       0
     44 x11                    1                     -30
     45 x16                    1                     -30
     46 x5                     2                      30
     47 x17                    1                     -30
     48 x6                     1                       0
     49 x19                    1                   30.05
     50 x21                    1                   30.05
     51 x23                    1                   30.05
